MoNbTaVW HEA POSCAR
1.0
     9.6700000000000000    0.0000000000000000    0.0000000000000000
     0.0000000000000000    9.6700000000000000    0.0000000000000000
     0.0000000000000000    0.0000000000000000    9.6700000000000000
Mo Nb Ta V W 
11 11 10 11 11
Direct
0.0000000000	0.3333333333	0.6666666667
0.3333333333	0.3333333333	0.6666666667
0.6666666667	0.3333333333	0.3333333333
0.6666666667	0.3333333333	0.6666666667
0.0000000000	0.6666666667	0.0000000000
0.3333333333	0.6666666667	0.3333333333
0.1666666667	0.8333333333	0.8333333333
0.8333333333	0.1666666667	0.8333333333
0.5000000000	0.1666666667	0.5000000000
0.1666666667	0.1666666667	0.1666666667
0.5000000000	0.1666666667	0.1666666667
0.3333333333	0.0000000000	0.0000000000
0.6666666667	0.0000000000	0.0000000000
0.0000000000	0.0000000000	0.6666666667
0.6666666667	0.0000000000	0.6666666667
0.6666666667	0.6666666667	0.6666666667
0.5000000000	0.1666666667	0.8333333333
0.1666666667	0.5000000000	0.8333333333
0.8333333333	0.1666666666	0.5000000000
0.8333333333	0.8333333333	0.5000000000
0.8333333333	0.1666666667	0.1666666667
0.5000000000	0.5000000000	0.1666666667
0.0000000000	0.0000000000	0.3333333333
0.6666666667	0.0000000000	0.3333333333
0.6666666667	0.6666000000	0.3333333333
0.1666666667	0.1666666667	0.8333333333
0.5000000000	0.5000000000	0.8333333333
0.8333333333	0.5000000000	0.8333333333
0.5000000000	0.8333333333	0.5000000000
0.1666666666	0.5000000000	0.1666666667
0.1666666667	0.8333333333	0.1666666667
0.8333333333	0.8333333333	0.1666666667
0.3333333333	0.0000000000	0.6666666667
0.3333333333	0.0000000000	0.3333333333
0.3333333333	0.3333333333	0.0000000000
0.0000000000	0.3333333333	0.3333333333
0.3333333333	0.6666666667	0.0000000000
0.0000000000	0.6666666667	0.6666666667
0.0000000000	0.6666666667	0.3333333333
0.5000000000	0.8333333333	0.8333333333
0.8333333333	0.8333333333	0.8333333333
0.8333333333	0.5000000000	0.5000000000
0.5000000000	0.8333333333	0.1666666667
0.0000000000	0.0000000000	0.0000000000
0.0000000000	0.3333333333	0.0000000000
0.6666666667	0.3333333333	0.0000000000
0.6666666667	0.6666666667	0.0000000000
0.3333333333	0.3333000000	0.3333333333
0.3333333333	0.6666666667	0.6666666667
0.8333333333	0.5000000000	0.1666666667
0.1666666667	0.5000000000	0.5000000000
0.1666666667	0.1666666667	0.5000000000
0.1666666667	0.8333333333	0.5000000000
0.5000000000	0.5000000000	0.5000000000
