ALGO = Normal
EDIFF = 0.0001
EDIFFG = -0.02
ENCUT = 520
IBRION = 1
ISIF = 3
ISMEAR = 1
#ISPIN = 2
LASPH = True
LMAXMIX = 6
LORBIT = 11
LREAL = Auto
LWAVE = False
#MAGMOM = 53*1.0
NELM = 100
NELMDL = -6
NELMIN = 5
NSW = 200
PREC = Accurate
SIGMA = 0.05
KPAR = 1
NCORE = 64
NPAR = 4
