ALGO = Normal
EDIFF = 1e-05
ENCUT = 520
IBRION = 1
#ISIF = 3
ISMEAR = 1
#ISPIN = 2
LCHARG = False
LMAXMIX = 6
LORBIT = 11
LREAL = Auto
LWAVE = False
#MAGMOM = 53*1.0
NELM = 300
NELMDL = -6
NELMIN = 5
NSW = 0
PREC = Accurate
SIGMA = 0.05
KPAR = 1
NCORE = 16
NPAR = 4
