POSCAR
1
15.000 0.00 0.00
0.00 15.000 0.00
0.00 0.00 15.000
A
1
Direct
0.000000000         0.000000000         0.000000000