POSCAR
1
  9.90000000  0.00000000  0.00000000
  0.00000000 13.20000000  0.00000000
  0.00000000  0.00000000  9.90000000
  A   B   C   D
  18  18  18  18
Direct
  0.66666667  0.75000000  1.00000000
  0.83333333  0.37500000  0.16666667
  0.33333333  0.75000000  1.00000000
  0.50000000  0.87500000  0.16666667
  0.33333333  1.00000000  1.00000000
  0.66666667  0.25000000  0.33333333
  0.83333333  0.37500000  0.50000000
  0.50000000  0.87500000  0.50000000
  0.83333333  0.87500000  0.83333333
  0.66666667  0.50000000  0.66666667
  0.66666667  0.25000000  0.66666667
  0.66666667  1.00000000  0.66666667
  0.83333333  0.12500000  0.83333333
  1.00000000  0.75000000  0.33333333
  0.16666667  0.62500000  0.50000000
  1.00000000  0.25000000  0.33333333
  0.33333333  0.50000000  0.66666667
  1.00000000  0.25000000  0.66666667
  0.83333333  0.87500000  0.16666667
  0.66666667  0.75000000  0.33333333
  0.33333333  0.25000000  1.00000000
  0.50000000  0.12500000  0.16666667
  0.83333333  0.12500000  0.50000000
  1.00000000  0.75000000  1.00000000
  0.16666667  0.62500000  0.16666667
  0.16666667  0.37500000  0.16666667
  0.16666667  0.12500000  0.16666667
  0.83333333  0.62500000  0.83333333
  0.50000000  0.12500000  0.50000000
  0.16666667  0.12500000  0.50000000
  0.33333333  1.00000000  0.66666667
  0.50000000  0.12500000  0.83333333
  1.00000000  0.75000000  0.66666667
  1.00000000  0.50000000  0.66666667
  0.16666667  0.62500000  0.83333333
  1.00000000  1.00000000  0.66666667
  0.66666667  0.50000000  1.00000000
  0.66666667  0.25000000  1.00000000
  0.66666667  1.00000000  1.00000000
  0.83333333  0.87500000  0.50000000
  0.50000000  0.37500000  0.16666667
  0.83333333  0.62500000  0.50000000
  1.00000000  0.50000000  1.00000000
  0.33333333  0.75000000  0.33333333
  1.00000000  0.25000000  1.00000000
  0.33333333  0.50000000  0.33333333
  0.50000000  0.37500000  0.50000000
  0.83333333  0.37500000  0.83333333
  0.16666667  0.37500000  0.50000000
  0.50000000  0.62500000  0.83333333
  1.00000000  1.00000000  0.33333333
  0.33333333  0.25000000  0.66666667
  0.16666667  0.37500000  0.83333333
  0.16666667  0.12500000  0.83333333
  0.83333333  0.62500000  0.16666667
  0.83333333  0.12500000  0.16666667
  0.33333333  0.50000000  1.00000000
  0.50000000  0.62500000  0.16666667
  0.66666667  0.50000000  0.33333333
  0.66666667  1.00000000  0.33333333
  0.16666667  0.87500000  0.16666667
  0.50000000  0.62500000  0.50000000
  0.66666667  0.75000000  0.66666667
  1.00000000  1.00000000  1.00000000
  0.33333333  0.25000000  0.33333333
  0.33333333  1.00000000  0.33333333
  0.16666667  0.87500000  0.50000000
  1.00000000  0.50000000  0.33333333
  0.33333333  0.75000000  0.66666667
  0.50000000  0.87500000  0.83333333
  0.50000000  0.37500000  0.83333333
  0.16666667  0.87500000  0.83333333
